c User generated cnf file
p cnf 12 49
10 -7 8 0 
7 -1 9 0 
-6 11 10 0 
7 -9 8 0 
-2 2 4 0 
-3 11 9 0 
4 -12 7 0 
-9 6 7 0 
-2 6 11 0 
3 2 -5 0 
10 -4 7 0 
11 3 -9 0 
10 10 -11 0 
9 -3 2 0 
-5 9 4 0 
4 -5 12 0 
6 6 -4 0 
8 -2 11 0 
-6 10 12 0 
-12 5 9 0 
-5 9 3 0 
7 10 -10 0 
10 -12 3 0 
9 6 -1 0 
4 -1 3 0 
6 -1 2 0 
4 -6 3 0 
5 -6 1 0 
8 10 -1 0 
-7 6 6 0 
-3 11 9 0 
2 5 -11 0 
9 -8 5 0 
-1 7 12 0 
10 12 -12 0 
10 -12 12 0 
8 -9 4 0 
-5 10 3 0 
9 -8 1 0 
3 5 -8 0 
10 -6 11 0 
6 6 -9 0 
-11 1 1 0 
1 -6 7 0 
6 4 -5 0 
10 -8 6 0 
1 -12 7 0 
1 -8 3 0 
9 -4 4 0 
